244 300 88 56 52 72 64 58 67 99 72 83 54 99 86 57 95 98 90 72 100 87 86 60 66 96 96 62 58 89 83 61 60 70 67 62 66 55 95 58 54 92 91 83 90 50 91 84 98 54 80 71 65 65 56 81 60 51 67 93 64 100 53 74 94 71 61 60 76 80 68 54 71 58 62 60 59 52 68 81 81 99 77 97 88 83 51 73 58 69 65 72 68 94 96 87 64 81 97 64 61 64 94 82 97 55 67 55 82 85 61 62 57 88 58 96 95 85 93 52 53 82 74 96 75 94 82 63 75 78 78 86 66 96 92 63 75 58 93 56 68 53 93 100 65 76 95 59 60 61 61 63 94 85 58 68 53 91 82 78 93 84 88 59 53 79 97 78 62 89 84 54 67 50 53 56 76 73 66 86 84 51 99 77 61 82 70 64 97 51 92 89 59 79 72 62 82 93 64 94 56 98 72 98 72 76 53 99 99 69 84 82 71 57 84 56 89 53 70 85 79 86 98 88 64 95 74 70 87 88 89 67 59 60 64 81 86 68 79 58 61 88 91 56 95 74 